33806.2
27705.2
23016
20083.7
17705.7
17705.7
16525
13741.1
13741.1
13741.1
13741.1
13741.1
13255.4
12958.8
12657.8
12657.8
12657.8
12657.8
12657.8
12657.8
11942.8
11942.8
11942.8
9584.99
9584.99
9584.99
9237.25
9237.25
9206.21
9206.21
9206.21
9206.21
8727.71
7754.85
7202.79
7202.79
7202.79
7202.79
7202.79
7202.79
7202.79
7202.79
7202.79
7202.79
7202.79
7202.79
7202.79
7202.79
7202.79
7202.79
7177.54
7177.54
7177.54
7177.54
7177.54
7177.54
7177.54
7177.54
7177.54
7177.54
7177.54
7177.54
7177.54
7177.54
7177.54
7177.54
7177.54
7177.54
7177.54
7177.54
7177.54
7177.54
7177.54
7177.54
7177.54
7177.54
7177.54
7177.54
7177.54
7177.54
7177.54
7177.54
7177.54
7177.54
7177.54
7177.54
7177.54
7177.54
7177.54
7177.54
7177.54
7177.54
7177.54
7177.54
7177.54
7177.54
7177.54
7177.54
7177.54
7177.54
